DATASET = "thpack6";
INSTANCE = "066";

WIDTH = 233;
HEIGHT = 220;
LENGTH = 587;

NO_OF_SHAPES = 15;
size = [|
  87,45,32 |
  84,63,46 |
  84,67,44 |
  76,55,30 |
  87,78,61 |
  115,77,53 |
  78,72,51 |
  93,91,62 |
  48,41,40 |
  92,82,53 |
  102,69,54 |
  80,52,34 |
  90,71,60 |
  66,43,42 |
  73,58,52 |
|];

verticality = [|
  0,1,1 |
  1,1,1 |
  1,1,1 |
  0,1,1 |
  1,1,1 |
  0,1,1 |
  1,1,1 |
  1,1,1 |
  1,1,1 |
  1,1,1 |
  1,1,1 |
  0,1,1 |
  1,1,1 |
  1,1,1 |
  1,1,1 |
|];

box_count = [
  16,
  9,
  5,
  5,
  7,
  6,
  12,
  7,
  6,
  7,
  4,
  9,
  5,
  9,
  9,
];
